* #variable= 20 #constraint= 1 #product= 813 sizeproduct= 2514
min: +64 x1 x2 x3 x4 +64 x1 x2 x4 x5 +64 x1 x2 x5 x6 +64 x1 x2 x6 x7 +64 x1 x2 x7 x8 +64 x1 x2 x8 x9 +64 x1 x2 x9 x10 +64 x1 x3 x4 x6 +64 x1 x3 x5 x7 +64 x1 x3 x6 x8 +64 x1 x3 x7 x9 +64 x1 x3 x8 x10 +64 x1 x4 x5 x8 +64 x1 x4 x6 x9 +64 x1 x4 x7 x10 +64 x1 x5 x6 x10 +128 x2 x3 x4 x5 +128 x2 x3 x5 x6 +128 x2 x3 x6 x7 +128 x2 x3 x7 x8 +128 x2 x3 x8 x9 +128 x2 x3 x9 x10 +64 x2 x3 x10 x11 +128 x2 x4 x5 x7 +128 x2 x4 x6 x8 +128 x2 x4 x7 x9 +128 x2 x4 x8 x10 +64 x2 x4 x9 x11 +128 x2 x5 x6 x9 +128 x2 x5 x7 x10 +64 x2 x5 x8 x11 +64 x2 x6 x7 x11 +192 x3 x4 x5 x6 +192 x3 x4 x6 x7 +192 x3 x4 x7 x8 +192 x3 x4 x8 x9 +192 x3 x4 x9 x10 +128 x3 x4 x10 x11 +64 x3 x4 x11 x12 +192 x3 x5 x6 x8 +192 x3 x5 x7 x9 +192 x3 x5 x8 x10 +128 x3 x5 x9 x11 +64 x3 x5 x10 x12 +192 x3 x6 x7 x10 +128 x3 x6 x8 x11 +64 x3 x6 x9 x12 +64 x3 x7 x8 x12 +256 x4 x5 x6 x7 +256 x4 x5 x7 x8 +256 x4 x5 x8 x9 +256 x4 x5 x9 x10 +192 x4 x5 x10 x11 +128 x4 x5 x11 x12 +64 x4 x5 x12 x13 +256 x4 x6 x7 x9 +256 x4 x6 x8 x10 +192 x4 x6 x9 x11 +128 x4 x6 x10 x12 +64 x4 x6 x11 x13 +192 x4 x7 x8 x11 +128 x4 x7 x9 x12 +64 x4 x7 x10 x13 +64 x4 x8 x9 x13 +320 x5 x6 x7 x8 +320 x5 x6 x8 x9 +320 x5 x6 x9 x10 +256 x5 x6 x10 x11 +192 x5 x6 x11 x12 +128 x5 x6 x12 x13 +64 x5 x6 x13 x14 +320 x5 x7 x8 x10 +256 x5 x7 x9 x11 +192 x5 x7 x10 x12 +128 x5 x7 x11 x13 +64 x5 x7 x12 x14 +192 x5 x8 x9 x12 +128 x5 x8 x10 x13 +64 x5 x8 x11 x14 +64 x5 x9 x10 x14 +384 x6 x7 x8 x9 +384 x6 x7 x9 x10 +320 x6 x7 x10 x11 +256 x6 x7 x11 x12 +192 x6 x7 x12 x13 +128 x6 x7 x13 x14 +64 x6 x7 x14 x15 +320 x6 x8 x9 x11 +256 x6 x8 x10 x12 +192 x6 x8 x11 x13 +128 x6 x8 x12 x14 +64 x6 x8 x13 x15 +192 x6 x9 x10 x13 +128 x6 x9 x11 x14 +64 x6 x9 x12 x15 +64 x6 x10 x11 x15 +448 x7 x8 x9 x10 +384 x7 x8 x10 x11 +320 x7 x8 x11 x12 +256 x7 x8 x12 x13 +192 x7 x8 x13 x14 +128 x7 x8 x14 x15 +64 x7 x8 x15 x16 +320 x7 x9 x10 x12 +256 x7 x9 x11 x13 +192 x7 x9 x12 x14 +128 x7 x9 x13 x15 +64 x7 x9 x14 x16 +192 x7 x10 x11 x14 +128 x7 x10 x12 x15 +64 x7 x10 x13 x16 +64 x7 x11 x12 x16 +448 x8 x9 x10 x11 +384 x8 x9 x11 x12 +320 x8 x9 x12 x13 +256 x8 x9 x13 x14 +192 x8 x9 x14 x15 +128 x8 x9 x15 x16 +64 x8 x9 x16 x17 +320 x8 x10 x11 x13 +256 x8 x10 x12 x14 +192 x8 x10 x13 x15 +128 x8 x10 x14 x16 +64 x8 x10 x15 x17 +192 x8 x11 x12 x15 +128 x8 x11 x13 x16 +64 x8 x11 x14 x17 +64 x8 x12 x13 x17 +448 x9 x10 x11 x12 +384 x9 x10 x12 x13 +320 x9 x10 x13 x14 +256 x9 x10 x14 x15 +192 x9 x10 x15 x16 +128 x9 x10 x16 x17 +64 x9 x10 x17 x18 +320 x9 x11 x12 x14 +256 x9 x11 x13 x15 +192 x9 x11 x14 x16 +128 x9 x11 x15 x17 +64 x9 x11 x16 x18 +192 x9 x12 x13 x16 +128 x9 x12 x14 x17 +64 x9 x12 x15 x18 +64 x9 x13 x14 x18 +448 x10 x11 x12 x13 +384 x10 x11 x13 x14 +320 x10 x11 x14 x15 +256 x10 x11 x15 x16 +192 x10 x11 x16 x17 +128 x10 x11 x17 x18 +64 x10 x11 x18 x19 +320 x10 x12 x13 x15 +256 x10 x12 x14 x16 +192 x10 x12 x15 x17 +128 x10 x12 x16 x18 +64 x10 x12 x17 x19 +192 x10 x13 x14 x17 +128 x10 x13 x15 x18 +64 x10 x13 x16 x19 +64 x10 x14 x15 x19 +448 x11 x12 x13 x14 +384 x11 x12 x14 x15 +320 x11 x12 x15 x16 +256 x11 x12 x16 x17 +192 x11 x12 x17 x18 +128 x11 x12 x18 x19 +64 x11 x12 x19 x20 +320 x11 x13 x14 x16 +256 x11 x13 x15 x17 +192 x11 x13 x16 x18 +128 x11 x13 x17 x19 +64 x11 x13 x18 x20 +192 x11 x14 x15 x18 +128 x11 x14 x16 x19 +64 x11 x14 x17 x20 +64 x11 x15 x16 x20 +384 x12 x13 x14 x15 +320 x12 x13 x15 x16 +256 x12 x13 x16 x17 +192 x12 x13 x17 x18 +128 x12 x13 x18 x19 +64 x12 x13 x19 x20 +256 x12 x14 x15 x17 +192 x12 x14 x16 x18 +128 x12 x14 x17 x19 +64 x12 x14 x18 x20 +128 x12 x15 x16 x19 +64 x12 x15 x17 x20 +320 x13 x14 x15 x16 +256 x13 x14 x16 x17 +192 x13 x14 x17 x18 +128 x13 x14 x18 x19 +64 x13 x14 x19 x20 +192 x13 x15 x16 x18 +128 x13 x15 x17 x19 +64 x13 x15 x18 x20 +64 x13 x16 x17 x20 +256 x14 x15 x16 x17 +192 x14 x15 x17 x18 +128 x14 x15 x18 x19 +64 x14 x15 x19 x20 +128 x14 x16 x17 x19 +64 x14 x16 x18 x20 +192 x15 x16 x17 x18 +128 x15 x16 x18 x19 +64 x15 x16 x19 x20 +64 x15 x17 x18 x20 +128 x16 x17 x18 x19 +64 x16 x17 x19 x20 +64 x17 x18 x19 x20 -32 x1 x2 x3 -64 x1 x2 x4 -64 x1 x2 x5 -64 x1 x2 x6 -64 x1 x2 x7 -64 x1 x2 x8 -64 x1 x2 x9 -32 x1 x2 x10 -64 x1 x3 x4 -32 x1 x3 x5 -64 x1 x3 x6 -64 x1 x3 x7 -64 x1 x3 x8 -32 x1 x3 x9 -32 x1 x3 x10 -64 x1 x4 x5 -64 x1 x4 x6 -32 x1 x4 x7 -32 x1 x4 x8 -32 x1 x4 x9 -32 x1 x4 x10 -64 x1 x5 x6 -32 x1 x5 x7 -32 x1 x5 x8 -32 x1 x5 x10 -32 x1 x6 x7 -32 x1 x6 x8 -32 x1 x6 x9 -32 x1 x6 x10 -32 x1 x7 x8 -32 x1 x7 x9 -32 x1 x7 x10 -32 x1 x8 x9 -32 x1 x8 x10 -32 x1 x9 x10 -96 x2 x3 x4 -128 x2 x3 x5 -128 x2 x3 x6 -128 x2 x3 x7 -128 x2 x3 x8 -128 x2 x3 x9 -96 x2 x3 x10 -32 x2 x3 x11 -160 x2 x4 x5 -64 x2 x4 x6 -128 x2 x4 x7 -128 x2 x4 x8 -96 x2 x4 x9 -64 x2 x4 x10 -32 x2 x4 x11 -160 x2 x5 x6 -128 x2 x5 x7 -32 x2 x5 x8 -64 x2 x5 x9 -64 x2 x5 x10 -32 x2 x5 x11 -128 x2 x6 x7 -64 x2 x6 x8 -64 x2 x6 x9 -32 x2 x6 x11 -96 x2 x7 x8 -64 x2 x7 x9 -64 x2 x7 x10 -32 x2 x7 x11 -96 x2 x8 x9 -64 x2 x8 x10 -32 x2 x8 x11 -96 x2 x9 x10 -32 x2 x9 x11 -32 x2 x10 x11 -160 x3 x4 x5 -224 x3 x4 x6 -192 x3 x4 x7 -192 x3 x4 x8 -192 x3 x4 x9 -160 x3 x4 x10 -96 x3 x4 x11 -32 x3 x4 x12 -256 x3 x5 x6 -128 x3 x5 x7 -192 x3 x5 x8 -160 x3 x5 x9 -128 x3 x5 x10 -64 x3 x5 x11 -32 x3 x5 x12 -256 x3 x6 x7 -192 x3 x6 x8 -32 x3 x6 x9 -96 x3 x6 x10 -64 x3 x6 x11 -32 x3 x6 x12 -192 x3 x7 x8 -128 x3 x7 x9 -96 x3 x7 x10 -32 x3 x7 x12 -160 x3 x8 x9 -128 x3 x8 x10 -64 x3 x8 x11 -32 x3 x8 x12 -160 x3 x9 x10 -64 x3 x9 x11 -32 x3 x9 x12 -96 x3 x10 x11 -32 x3 x10 x12 -32 x3 x11 x12 -224 x4 x5 x6 -320 x4 x5 x7 -288 x4 x5 x8 -256 x4 x5 x9 -224 x4 x5 x10 -160 x4 x5 x11 -96 x4 x5 x12 -32 x4 x5 x13 -352 x4 x6 x7 -192 x4 x6 x8 -256 x4 x6 x9 -192 x4 x6 x10 -128 x4 x6 x11 -64 x4 x6 x12 -32 x4 x6 x13 -320 x4 x7 x8 -256 x4 x7 x9 -64 x4 x7 x10 -96 x4 x7 x11 -64 x4 x7 x12 -32 x4 x7 x13 -256 x4 x8 x9 -192 x4 x8 x10 -96 x4 x8 x11 -32 x4 x8 x13 -224 x4 x9 x10 -128 x4 x9 x11 -64 x4 x9 x12 -32 x4 x9 x13 -160 x4 x10 x11 -64 x4 x10 x12 -32 x4 x10 x13 -96 x4 x11 x12 -32 x4 x11 x13 -32 x4 x12 x13 -288 x5 x6 x7 -416 x5 x6 x8 -384 x5 x6 x9 -320 x5 x6 x10 -224 x5 x6 x11 -160 x5 x6 x12 -96 x5 x6 x13 -32 x5 x6 x14 -448 x5 x7 x8 -224 x5 x7 x9 -320 x5 x7 x10 -192 x5 x7 x11 -128 x5 x7 x12 -64 x5 x7 x13 -32 x5 x7 x14 -384 x5 x8 x9 -320 x5 x8 x10 -64 x5 x8 x11 -96 x5 x8 x12 -64 x5 x8 x13 -32 x5 x8 x14 -320 x5 x9 x10 -192 x5 x9 x11 -96 x5 x9 x12 -32 x5 x9 x14 -224 x5 x10 x11 -128 x5 x10 x12 -64 x5 x10 x13 -32 x5 x10 x14 -160 x5 x11 x12 -64 x5 x11 x13 -32 x5 x11 x14 -96 x5 x12 x13 -32 x5 x12 x14 -32 x5 x13 x14 -352 x6 x7 x8 -512 x6 x7 x9 -448 x6 x7 x10 -320 x6 x7 x11 -224 x6 x7 x12 -160 x6 x7 x13 -96 x6 x7 x14 -32 x6 x7 x15 -512 x6 x8 x9 -256 x6 x8 x10 -320 x6 x8 x11 -192 x6 x8 x12 -128 x6 x8 x13 -64 x6 x8 x14 -32 x6 x8 x15 -448 x6 x9 x10 -320 x6 x9 x11 -64 x6 x9 x12 -96 x6 x9 x13 -64 x6 x9 x14 -32 x6 x9 x15 -320 x6 x10 x11 -192 x6 x10 x12 -96 x6 x10 x13 -32 x6 x10 x15 -224 x6 x11 x12 -128 x6 x11 x13 -64 x6 x11 x14 -32 x6 x11 x15 -160 x6 x12 x13 -64 x6 x12 x14 -32 x6 x12 x15 -96 x6 x13 x14 -32 x6 x13 x15 -32 x6 x14 x15 -416 x7 x8 x9 -576 x7 x8 x10 -448 x7 x8 x11 -320 x7 x8 x12 -224 x7 x8 x13 -160 x7 x8 x14 -96 x7 x8 x15 -32 x7 x8 x16 -576 x7 x9 x10 -256 x7 x9 x11 -320 x7 x9 x12 -192 x7 x9 x13 -128 x7 x9 x14 -64 x7 x9 x15 -32 x7 x9 x16 -448 x7 x10 x11 -320 x7 x10 x12 -64 x7 x10 x13 -96 x7 x10 x14 -64 x7 x10 x15 -32 x7 x10 x16 -320 x7 x11 x12 -192 x7 x11 x13 -96 x7 x11 x14 -32 x7 x11 x16 -224 x7 x12 x13 -128 x7 x12 x14 -64 x7 x12 x15 -32 x7 x12 x16 -160 x7 x13 x14 -64 x7 x13 x15 -32 x7 x13 x16 -96 x7 x14 x15 -32 x7 x14 x16 -32 x7 x15 x16 -448 x8 x9 x10 -576 x8 x9 x11 -448 x8 x9 x12 -320 x8 x9 x13 -224 x8 x9 x14 -160 x8 x9 x15 -96 x8 x9 x16 -32 x8 x9 x17 -576 x8 x10 x11 -256 x8 x10 x12 -320 x8 x10 x13 -192 x8 x10 x14 -128 x8 x10 x15 -64 x8 x10 x16 -32 x8 x10 x17 -448 x8 x11 x12 -320 x8 x11 x13 -64 x8 x11 x14 -96 x8 x11 x15 -64 x8 x11 x16 -32 x8 x11 x17 -320 x8 x12 x13 -192 x8 x12 x14 -96 x8 x12 x15 -32 x8 x12 x17 -224 x8 x13 x14 -128 x8 x13 x15 -64 x8 x13 x16 -32 x8 x13 x17 -160 x8 x14 x15 -64 x8 x14 x16 -32 x8 x14 x17 -96 x8 x15 x16 -32 x8 x15 x17 -32 x8 x16 x17 -448 x9 x10 x11 -576 x9 x10 x12 -448 x9 x10 x13 -320 x9 x10 x14 -224 x9 x10 x15 -160 x9 x10 x16 -96 x9 x10 x17 -32 x9 x10 x18 -576 x9 x11 x12 -256 x9 x11 x13 -320 x9 x11 x14 -192 x9 x11 x15 -128 x9 x11 x16 -64 x9 x11 x17 -32 x9 x11 x18 -448 x9 x12 x13 -320 x9 x12 x14 -64 x9 x12 x15 -96 x9 x12 x16 -64 x9 x12 x17 -32 x9 x12 x18 -320 x9 x13 x14 -192 x9 x13 x15 -96 x9 x13 x16 -32 x9 x13 x18 -224 x9 x14 x15 -128 x9 x14 x16 -64 x9 x14 x17 -32 x9 x14 x18 -160 x9 x15 x16 -64 x9 x15 x17 -32 x9 x15 x18 -96 x9 x16 x17 -32 x9 x16 x18 -32 x9 x17 x18 -448 x10 x11 x12 -576 x10 x11 x13 -448 x10 x11 x14 -320 x10 x11 x15 -224 x10 x11 x16 -160 x10 x11 x17 -96 x10 x11 x18 -32 x10 x11 x19 -576 x10 x12 x13 -256 x10 x12 x14 -320 x10 x12 x15 -192 x10 x12 x16 -128 x10 x12 x17 -64 x10 x12 x18 -32 x10 x12 x19 -448 x10 x13 x14 -320 x10 x13 x15 -64 x10 x13 x16 -96 x10 x13 x17 -64 x10 x13 x18 -32 x10 x13 x19 -320 x10 x14 x15 -192 x10 x14 x16 -96 x10 x14 x17 -32 x10 x14 x19 -224 x10 x15 x16 -128 x10 x15 x17 -64 x10 x15 x18 -32 x10 x15 x19 -160 x10 x16 x17 -64 x10 x16 x18 -32 x10 x16 x19 -96 x10 x17 x18 -32 x10 x17 x19 -32 x10 x18 x19 -448 x11 x12 x13 -576 x11 x12 x14 -448 x11 x12 x15 -320 x11 x12 x16 -224 x11 x12 x17 -160 x11 x12 x18 -96 x11 x12 x19 -32 x11 x12 x20 -576 x11 x13 x14 -256 x11 x13 x15 -320 x11 x13 x16 -192 x11 x13 x17 -128 x11 x13 x18 -64 x11 x13 x19 -32 x11 x13 x20 -448 x11 x14 x15 -320 x11 x14 x16 -64 x11 x14 x17 -96 x11 x14 x18 -64 x11 x14 x19 -32 x11 x14 x20 -320 x11 x15 x16 -192 x11 x15 x17 -96 x11 x15 x18 -32 x11 x15 x20 -224 x11 x16 x17 -128 x11 x16 x18 -64 x11 x16 x19 -32 x11 x16 x20 -160 x11 x17 x18 -64 x11 x17 x19 -32 x11 x17 x20 -96 x11 x18 x19 -32 x11 x18 x20 -32 x11 x19 x20 -416 x12 x13 x14 -512 x12 x13 x15 -384 x12 x13 x16 -256 x12 x13 x17 -160 x12 x13 x18 -96 x12 x13 x19 -32 x12 x13 x20 -512 x12 x14 x15 -224 x12 x14 x16 -256 x12 x14 x17 -128 x12 x14 x18 -64 x12 x14 x19 -32 x12 x14 x20 -384 x12 x15 x16 -256 x12 x15 x17 -32 x12 x15 x18 -64 x12 x15 x19 -32 x12 x15 x20 -256 x12 x16 x17 -160 x12 x16 x18 -64 x12 x16 x19 -192 x12 x17 x18 -96 x12 x17 x19 -32 x12 x17 x20 -128 x12 x18 x19 -32 x12 x18 x20 -64 x12 x19 x20 -352 x13 x14 x15 -448 x13 x14 x16 -320 x13 x14 x17 -192 x13 x14 x18 -96 x13 x14 x19 -32 x13 x14 x20 -416 x13 x15 x16 -192 x13 x15 x17 -192 x13 x15 x18 -64 x13 x15 x19 -32 x13 x15 x20 -288 x13 x16 x17 -192 x13 x16 x18 -32 x13 x16 x19 -32 x13 x16 x20 -192 x13 x17 x18 -128 x13 x17 x19 -32 x13 x17 x20 -128 x13 x18 x19 -64 x13 x18 x20 -64 x13 x19 x20 -288 x14 x15 x16 -352 x14 x15 x17 -256 x14 x15 x18 -128 x14 x15 x19 -32 x14 x15 x20 -320 x14 x16 x17 -128 x14 x16 x18 -128 x14 x16 x19 -32 x14 x16 x20 -192 x14 x17 x18 -128 x14 x17 x19 -32 x14 x17 x20 -128 x14 x18 x19 -64 x14 x18 x20 -64 x14 x19 x20 -224 x15 x16 x17 -256 x15 x16 x18 -160 x15 x16 x19 -64 x15 x16 x20 -224 x15 x17 x18 -64 x15 x17 x19 -64 x15 x17 x20 -128 x15 x18 x19 -64 x15 x18 x20 -64 x15 x19 x20 -160 x16 x17 x18 -160 x16 x17 x19 -64 x16 x17 x20 -128 x16 x18 x19 -32 x16 x18 x20 -64 x16 x19 x20 -96 x17 x18 x19 -64 x17 x18 x20 -64 x17 x19 x20 -32 x18 x19 x20 +112 x1 x2 +104 x1 x3 +96 x1 x4 +88 x1 x5 +96 x1 x6 +88 x1 x7 +80 x1 x8 +72 x1 x9 +64 x1 x10 +224 x2 x3 +224 x2 x4 +208 x2 x5 +192 x2 x6 +208 x2 x7 +192 x2 x8 +176 x2 x9 +144 x2 x10 +64 x2 x11 +352 x3 x4 +344 x3 x5 +336 x3 x6 +328 x3 x7 +336 x3 x8 +296 x3 x9 +256 x3 x10 +144 x3 x11 +64 x3 x12 +496 x4 x5 +480 x4 x6 +464 x4 x7 +464 x4 x8 +448 x4 x9 +384 x4 x10 +256 x4 x11 +144 x4 x12 +64 x4 x13 +656 x5 x6 +616 x5 x7 +592 x5 x8 +568 x5 x9 +544 x5 x10 +384 x5 x11 +256 x5 x12 +144 x5 x13 +64 x5 x14 +800 x6 x7 +736 x6 x8 +704 x6 x9 +656 x6 x10 +544 x6 x11 +384 x6 x12 +256 x6 x13 +144 x6 x14 +64 x6 x15 +928 x7 x8 +856 x7 x9 +800 x7 x10 +656 x7 x11 +544 x7 x12 +384 x7 x13 +256 x7 x14 +144 x7 x15 +64 x7 x16 +1040 x8 x9 +960 x8 x10 +800 x8 x11 +656 x8 x12 +544 x8 x13 +384 x8 x14 +256 x8 x15 +144 x8 x16 +64 x8 x17 +1152 x9 x10 +960 x9 x11 +800 x9 x12 +656 x9 x13 +544 x9 x14 +384 x9 x15 +256 x9 x16 +144 x9 x17 +64 x9 x18 +1152 x10 x11 +960 x10 x12 +800 x10 x13 +656 x10 x14 +544 x10 x15 +384 x10 x16 +256 x10 x17 +144 x10 x18 +64 x10 x19 +1152 x11 x12 +960 x11 x13 +800 x11 x14 +656 x11 x15 +544 x11 x16 +384 x11 x17 +256 x11 x18 +144 x11 x19 +64 x11 x20 +1040 x12 x13 +856 x12 x14 +704 x12 x15 +568 x12 x16 +448 x12 x17 +296 x12 x18 +176 x12 x19 +72 x12 x20 +928 x13 x14 +736 x13 x15 +592 x13 x16 +464 x13 x17 +336 x13 x18 +192 x13 x19 +80 x13 x20 +800 x14 x15 +616 x14 x16 +464 x14 x17 +328 x14 x18 +208 x14 x19 +88 x14 x20 +656 x15 x16 +480 x15 x17 +336 x15 x18 +192 x15 x19 +96 x15 x20 +496 x16 x17 +344 x16 x18 +208 x16 x19 +88 x16 x20 +352 x17 x18 +224 x17 x19 +96 x17 x20 +224 x18 x19 +104 x18 x20 +112 x19 x20 -144 x1 -312 x2 -496 x3 -688 x4 -880 x5 -1072 x6 -1264 x7 -1448 x8 -1616 x9 -1760 x10 -1760 x11 -1616 x12 -1448 x13 -1264 x14 -1072 x15 -880 x16 -688 x17 -496 x18 -312 x19 -144 x20 ;
+1 x1 >= 0 ;
